c File: flat50_3_0.col
c
c SOURCE: Joseph Culberson (joe@cs.ualberta.ca)
c DESCRIPTION: Quasi-random coloring problem
c              generated with flatness = 0
c                             probability = 0.139
c                             known coloring = 3
c                             random seed = 1634
c              Creation Date:  Tue Jun  9 12:14:07 1998
c Maximum degree = 8 Minimum degree = 0
c p edge 50 115
c cnf created by edge2cnf
p cnf 150 545
-1 -2 0
-1 -3 0
-2 -3 0
1 2 3 0
-4 -5 0
-4 -6 0
-5 -6 0
4 5 6 0
-7 -8 0
-7 -9 0
-8 -9 0
7 8 9 0
-10 -11 0
-10 -12 0
-11 -12 0
10 11 12 0
-13 -14 0
-13 -15 0
-14 -15 0
13 14 15 0
-16 -17 0
-16 -18 0
-17 -18 0
16 17 18 0
-19 -20 0
-19 -21 0
-20 -21 0
19 20 21 0
-22 -23 0
-22 -24 0
-23 -24 0
22 23 24 0
-25 -26 0
-25 -27 0
-26 -27 0
25 26 27 0
-28 -29 0
-28 -30 0
-29 -30 0
28 29 30 0
-31 -32 0
-31 -33 0
-32 -33 0
31 32 33 0
-34 -35 0
-34 -36 0
-35 -36 0
34 35 36 0
-37 -38 0
-37 -39 0
-38 -39 0
37 38 39 0
-40 -41 0
-40 -42 0
-41 -42 0
40 41 42 0
-43 -44 0
-43 -45 0
-44 -45 0
43 44 45 0
-46 -47 0
-46 -48 0
-47 -48 0
46 47 48 0
-49 -50 0
-49 -51 0
-50 -51 0
49 50 51 0
-52 -53 0
-52 -54 0
-53 -54 0
52 53 54 0
-55 -56 0
-55 -57 0
-56 -57 0
55 56 57 0
-58 -59 0
-58 -60 0
-59 -60 0
58 59 60 0
-61 -62 0
-61 -63 0
-62 -63 0
61 62 63 0
-64 -65 0
-64 -66 0
-65 -66 0
64 65 66 0
-67 -68 0
-67 -69 0
-68 -69 0
67 68 69 0
-70 -71 0
-70 -72 0
-71 -72 0
70 71 72 0
-73 -74 0
-73 -75 0
-74 -75 0
73 74 75 0
-76 -77 0
-76 -78 0
-77 -78 0
76 77 78 0
-79 -80 0
-79 -81 0
-80 -81 0
79 80 81 0
-82 -83 0
-82 -84 0
-83 -84 0
82 83 84 0
-85 -86 0
-85 -87 0
-86 -87 0
85 86 87 0
-88 -89 0
-88 -90 0
-89 -90 0
88 89 90 0
-91 -92 0
-91 -93 0
-92 -93 0
91 92 93 0
-94 -95 0
-94 -96 0
-95 -96 0
94 95 96 0
-97 -98 0
-97 -99 0
-98 -99 0
97 98 99 0
-100 -101 0
-100 -102 0
-101 -102 0
100 101 102 0
-103 -104 0
-103 -105 0
-104 -105 0
103 104 105 0
-106 -107 0
-106 -108 0
-107 -108 0
106 107 108 0
-109 -110 0
-109 -111 0
-110 -111 0
109 110 111 0
-112 -113 0
-112 -114 0
-113 -114 0
112 113 114 0
-115 -116 0
-115 -117 0
-116 -117 0
115 116 117 0
-118 -119 0
-118 -120 0
-119 -120 0
118 119 120 0
-121 -122 0
-121 -123 0
-122 -123 0
121 122 123 0
-124 -125 0
-124 -126 0
-125 -126 0
124 125 126 0
-127 -128 0
-127 -129 0
-128 -129 0
127 128 129 0
-130 -131 0
-130 -132 0
-131 -132 0
130 131 132 0
-133 -134 0
-133 -135 0
-134 -135 0
133 134 135 0
-136 -137 0
-136 -138 0
-137 -138 0
136 137 138 0
-139 -140 0
-139 -141 0
-140 -141 0
139 140 141 0
-142 -143 0
-142 -144 0
-143 -144 0
142 143 144 0
-145 -146 0
-145 -147 0
-146 -147 0
145 146 147 0
-148 -149 0
-148 -150 0
-149 -150 0
148 149 150 0
-85 -1 0
-86 -2 0
-87 -3 0
-88 -1 0
-89 -2 0
-90 -3 0
-97 -1 0
-98 -2 0
-99 -3 0
-136 -1 0
-137 -2 0
-138 -3 0
-94 -4 0
-95 -5 0
-96 -6 0
-118 -4 0
-119 -5 0
-120 -6 0
-148 -4 0
-149 -5 0
-150 -6 0
-73 -7 0
-74 -8 0
-75 -9 0
-85 -7 0
-86 -8 0
-87 -9 0
-88 -7 0
-89 -8 0
-90 -9 0
-97 -7 0
-98 -8 0
-99 -9 0
-121 -7 0
-122 -8 0
-123 -9 0
-139 -7 0
-140 -8 0
-141 -9 0
-55 -10 0
-56 -11 0
-57 -12 0
-76 -10 0
-77 -11 0
-78 -12 0
-79 -10 0
-80 -11 0
-81 -12 0
-118 -10 0
-119 -11 0
-120 -12 0
-124 -10 0
-125 -11 0
-126 -12 0
-133 -10 0
-134 -11 0
-135 -12 0
-58 -13 0
-59 -14 0
-60 -15 0
-100 -13 0
-101 -14 0
-102 -15 0
-115 -13 0
-116 -14 0
-117 -15 0
-118 -13 0
-119 -14 0
-120 -15 0
-133 -13 0
-134 -14 0
-135 -15 0
-52 -16 0
-53 -17 0
-54 -18 0
-76 -16 0
-77 -17 0
-78 -18 0
-106 -16 0
-107 -17 0
-108 -18 0
-124 -16 0
-125 -17 0
-126 -18 0
-130 -16 0
-131 -17 0
-132 -18 0
-142 -16 0
-143 -17 0
-144 -18 0
-64 -19 0
-65 -20 0
-66 -21 0
-76 -19 0
-77 -20 0
-78 -21 0
-94 -19 0
-95 -20 0
-96 -21 0
-148 -19 0
-149 -20 0
-150 -21 0
-79 -22 0
-80 -23 0
-81 -24 0
-133 -22 0
-134 -23 0
-135 -24 0
-142 -22 0
-143 -23 0
-144 -24 0
-52 -25 0
-53 -26 0
-54 -27 0
-88 -25 0
-89 -26 0
-90 -27 0
-94 -25 0
-95 -26 0
-96 -27 0
-103 -25 0
-104 -26 0
-105 -27 0
-106 -25 0
-107 -26 0
-108 -27 0
-121 -25 0
-122 -26 0
-123 -27 0
-55 -28 0
-56 -29 0
-57 -30 0
-79 -28 0
-80 -29 0
-81 -30 0
-85 -28 0
-86 -29 0
-87 -30 0
-106 -28 0
-107 -29 0
-108 -30 0
-130 -28 0
-131 -29 0
-132 -30 0
-58 -31 0
-59 -32 0
-60 -33 0
-73 -31 0
-74 -32 0
-75 -33 0
-100 -31 0
-101 -32 0
-102 -33 0
-121 -31 0
-122 -32 0
-123 -33 0
-139 -31 0
-140 -32 0
-141 -33 0
-61 -34 0
-62 -35 0
-63 -36 0
-70 -34 0
-71 -35 0
-72 -36 0
-82 -34 0
-83 -35 0
-84 -36 0
-109 -34 0
-110 -35 0
-111 -36 0
-91 -37 0
-92 -38 0
-93 -39 0
-106 -37 0
-107 -38 0
-108 -39 0
-136 -37 0
-137 -38 0
-138 -39 0
-148 -37 0
-149 -38 0
-150 -39 0
-103 -40 0
-104 -41 0
-105 -42 0
-115 -40 0
-116 -41 0
-117 -42 0
-142 -40 0
-143 -41 0
-144 -42 0
-145 -40 0
-146 -41 0
-147 -42 0
-76 -43 0
-77 -44 0
-78 -45 0
-94 -43 0
-95 -44 0
-96 -45 0
-100 -43 0
-101 -44 0
-102 -45 0
-139 -43 0
-140 -44 0
-141 -45 0
-148 -43 0
-149 -44 0
-150 -45 0
-79 -46 0
-80 -47 0
-81 -48 0
-85 -46 0
-86 -47 0
-87 -48 0
-91 -46 0
-92 -47 0
-93 -48 0
-121 -46 0
-122 -47 0
-123 -48 0
-97 -49 0
-98 -50 0
-99 -51 0
-100 -49 0
-101 -50 0
-102 -51 0
-112 -49 0
-113 -50 0
-114 -51 0
-124 -49 0
-125 -50 0
-126 -51 0
-109 -52 0
-110 -53 0
-111 -54 0
-115 -55 0
-116 -56 0
-117 -57 0
-148 -55 0
-149 -56 0
-150 -57 0
-136 -58 0
-137 -59 0
-138 -60 0
-139 -58 0
-140 -59 0
-141 -60 0
-106 -61 0
-107 -62 0
-108 -63 0
-112 -61 0
-113 -62 0
-114 -63 0
-130 -61 0
-131 -62 0
-132 -63 0
-148 -61 0
-149 -62 0
-150 -63 0
-106 -64 0
-107 -65 0
-108 -66 0
-130 -64 0
-131 -65 0
-132 -66 0
-106 -67 0
-107 -68 0
-108 -69 0
-109 -67 0
-110 -68 0
-111 -69 0
-133 -67 0
-134 -68 0
-135 -69 0
-139 -67 0
-140 -68 0
-141 -69 0
-136 -70 0
-137 -71 0
-138 -72 0
-148 -70 0
-149 -71 0
-150 -72 0
-112 -76 0
-113 -77 0
-114 -78 0
-115 -76 0
-116 -77 0
-117 -78 0
-103 -79 0
-104 -80 0
-105 -81 0
-115 -79 0
-116 -80 0
-117 -81 0
-133 -79 0
-134 -80 0
-135 -81 0
-136 -79 0
-137 -80 0
-138 -81 0
-103 -82 0
-104 -83 0
-105 -84 0
-136 -82 0
-137 -83 0
-138 -84 0
-148 -82 0
-149 -83 0
-150 -84 0
-142 -85 0
-143 -86 0
-144 -87 0
-103 -88 0
-104 -89 0
-105 -90 0
-109 -88 0
-110 -89 0
-111 -90 0
-121 -88 0
-122 -89 0
-123 -90 0
-145 -88 0
-146 -89 0
-147 -90 0
-103 -91 0
-104 -92 0
-105 -93 0
-109 -91 0
-110 -92 0
-111 -93 0
-115 -91 0
-116 -92 0
-117 -93 0
-145 -91 0
-146 -92 0
-147 -93 0
-130 -97 0
-131 -98 0
-132 -99 0
-133 -100 0
-134 -101 0
-135 -102 0
